p cnf 1004 1999
-1 -5 0
-3 -6 0
-7 -8 0
-9 -10 0
-11 -12 0
-13 -14 0
-16 -20 0
-18 -19 0
-23 -30 0
-24 -28 0
-25 -26 0
-25 -29 0
-26 -29 0
-31 -32 0
-35 -39 0
-36 -40 0
-46 -47 0
-48 -50 0
-53 -55 0
-56 -57 0
-58 -59 0
-64 -66 0
-65 -67 0
-69 -71 0
-72 -80 0
-73 -74 0
-78 -79 0
-81 -84 0
-82 -85 0
-87 -90 0
-88 -93 0
-88 -94 0
-93 -94 0
-22 -72 0
-35 -62 0
-35 -81 0
-62 -81 0
-17 -44 0
-51 -56 0
-2 -24 0
-45 -73 0
-83 -88 0
-9 -37 0
-18 -63 0
-10 -89 0
-31 -52 0
-38 -70 0
-46 -84 0
-3 -47 0
-19 -53 0
-19 -75 0
-53 -75 0
-4 -26 0
-4 -48 0
-26 -48 0
-54 -76 0
-58 -91 0
-12 -77 0
-27 -86 0
-20 -78 0
-28 -41 0
-49 -71 0
-21 -92 0
-29 -33 0
-42 -60 0
-67 -80 0
-14 -68 0
-15 -94 0
-30 -34 0
-43 -61 0
4 3 0
9 8 0
10 9 0
11 3 0
11 10 0
15 6 0
15 14 0
17 7 0
17 16 0
18 9 0
19 11 0
22 16 0
23 17 0
23 22 0
24 23 0
25 24 0
27 26 0
28 20 0
28 27 0
29 21 0
33 29 0
33 32 0
34 30 0
37 36 0
38 31 0
38 37 0
40 39 0
41 40 0
42 33 0
43 34 0
45 44 0
46 38 0
47 46 0
48 39 0
48 47 0
50 43 0
51 44 0
52 46 0
53 47 0
53 52 0
54 48 0
54 53 0
55 49 0
56 51 0
57 53 0
58 54 0
58 57 0
59 58 0
64 63 0
65 57 0
65 64 0
67 60 0
68 67 0
69 63 0
70 64 0
70 69 0
74 70 0
75 74 0
76 75 0
77 76 0
78 77 0
79 71 0
79 78 0
80 79 0
81 72 0
82 81 0
84 74 0
85 76 0
86 77 0
86 85 0
88 83 0
88 87 0
89 84 0
90 89 0
91 85 0
91 90 0
93 92 0
94 93 0
-95 0
1 7 98 0
-108 0
2 8 111 0
2 7 110 0
-121 0
3 10 124 0
-131 0
4 12 135 0
4 11 134 0
-142 0
5 14 147 0
5 13 146 0
-153 0
6 14 157 0
-164 0
7 16 242 0
-177 0
8 18 180 258 0
-185 0
-191 0
10 19 194 271 0
10 18 193 259 0
-201 0
-212 0
12 20 215 282 0
-223 0
13 21 226 293 0
13 20 225 283 0
-234 0
14 21 236 294 0
-238 0
-245 0
16 23 248 0
-251 0
17 24 253 313 0
17 22 298 0
-261 0
18 25 264 323 0
-274 0
19 26 277 336 0
-285 0
20 27 287 347 0
-296 0
-299 0
-310 0
-315 0
-326 0
-339 0
-349 0
-350 0
28 32 352 378 0
-357 0
29 32 358 379 0
-362 0
-363 0
31 37 364 391 0
-380 0
32 42 382 465 0
32 41 381 459 0
-384 0
-385 0
-386 0
35 44 387 0
-388 0
36 45 389 472 0
-392 0
37 46 394 476 0
-406 0
38 47 408 490 0
-425 0
39 47 426 491 0
-444 0
40 48 446 510 0
-460 0
41 49 462 526 0
-467 0
42 49 468 527 0
-469 0
-471 0
-473 0
45 51 474 531 0
-478 0
46 53 480 554 0
-492 0
47 54 494 568 0
47 52 493 535 0
-512 0
48 53 513 555 0
-528 0
-529 0
-532 0
-536 0
52 57 538 593 0
-556 0
53 58 557 613 0
-570 0
54 59 572 627 0
54 57 571 594 0
-584 0
55 60 585 641 0
-588 0
56 62 649 0
-595 0
57 64 597 671 0
-614 0
58 65 616 690 0
-629 0
59 66 631 705 0
-642 0
60 68 644 736 0
-647 0
61 68 648 0
-650 0
-658 0
63 70 660 764 0
-673 0
64 69 676 746 0
-692 0
65 70 693 765 0
-707 0
66 71 710 780 0
-726 0
67 71 728 781 0
-738 0
-749 0
69 74 751 810 0
-766 0
70 75 767 827 0
-783 0
71 80 787 896 0
71 78 786 877 0
-790 0
72 82 792 0
-796 0
73 83 798 910 0
73 82 797 905 0
-812 0
-828 0
75 85 831 939 0
75 84 830 924 0
-846 0
76 86 849 957 0
-862 0
77 85 864 940 0
-880 0
78 86 882 958 0
-884 0
-900 0
-903 0
-906 0
82 87 964 0
-912 0
83 87 965 0
-926 0
84 90 981 0
-942 0
85 90 982 0
-960 0
86 91 1000 0
-966 0
-967 0
-968 0
-983 0
-1001 0
-1002 0
-1003 0
-1004 0
-174 -162 0
-208 -198 0
-229 -219 0
-242 -98 0
-242 -110 0
-110 -98 0
-258 -111 0
-271 -259 0
-271 -124 0
-259 -124 0
-282 -135 0
-293 -283 0
-293 -146 0
-283 -146 0
-294 -147 0
-294 -157 0
-157 -147 0
-307 -167 0
-313 -298 0
-323 -180 0
-323 -193 0
-193 -180 0
-336 -194 0
-347 -215 0
-347 -225 0
-225 -215 0
-236 -226 0
-465 -459 0
-465 -358 0
-465 -352 0
-459 -352 0
-459 -358 0
-358 -352 0
-476 -364 0
-526 -381 0
-527 -382 0
-531 -389 0
-554 -394 0
-568 -535 0
-568 -426 0
-568 -408 0
-535 -408 0
-535 -426 0
-426 -408 0
-555 -446 0
-468 -462 0
-593 -493 0
-613 -513 0
-613 -480 0
-513 -480 0
-627 -594 0
-627 -494 0
-594 -494 0
-671 -538 0
-671 -571 0
-571 -538 0
-690 -557 0
-705 -572 0
-736 -585 0
-746 -597 0
-765 -616 0
-780 -631 0
-648 -644 0
-810 -676 0
-827 -693 0
-827 -660 0
-693 -660 0
-896 -877 0
-896 -728 0
-896 -710 0
-877 -710 0
-877 -728 0
-728 -710 0
-910 -905 0
-939 -924 0
-939 -767 0
-924 -767 0
-958 -786 0
-964 -797 0
-964 -792 0
-797 -792 0
-965 -798 0
-981 -830 0
-982 -831 0
-982 -864 0
-864 -831 0
-1000 -849 0
-1000 -882 0
-882 -849 0
-913 -908 0
-943 -928 0
-96 -111 99 0
-96 -110 98 0
-97 -124 100 0
-98 -167 101 0
-98 -162 96 0
-98 -161 95 0
-99 -180 102 0
-99 -174 96 0
-100 -194 103 0
-100 -193 102 0
-100 -188 97 0
-101 -248 104 0
-101 -242 98 0
-102 -264 105 0
-102 -259 100 0
-102 -258 99 0
-103 -277 106 0
-103 -271 100 0
-104 -307 101 0
-105 -323 102 0
-106 -336 103 0
-107 -98 110 0
-109 -124 112 0
-110 -167 113 0
-110 -162 108 0
-110 -161 107 0
-111 -180 114 0
-111 -174 108 0
-112 -194 115 0
-112 -193 114 0
-112 -188 109 0
-113 -248 116 0
-113 -242 110 0
-114 -264 117 0
-114 -259 112 0
-114 -258 111 0
-115 -277 118 0
-115 -271 112 0
-116 -307 113 0
-117 -323 114 0
-118 -336 115 0
-119 -98 122 0
-120 -111 123 0
-120 -110 122 0
-122 -167 125 0
-122 -162 120 0
-122 -161 119 0
-123 -180 126 0
-123 -174 120 0
-124 -194 127 0
-124 -193 126 0
-124 -188 121 0
-125 -248 128 0
-125 -242 122 0
-126 -264 129 0
-126 -259 124 0
-126 -258 123 0
-127 -277 130 0
-127 -271 124 0
-128 -307 125 0
-129 -323 126 0
-130 -336 127 0
-132 -147 137 0
-132 -146 136 0
-133 -157 137 0
-134 -198 131 0
-135 -215 138 0
-135 -208 131 0
-136 -226 139 0
-136 -225 138 0
-136 -219 132 0
-137 -236 139 0
-137 -230 133 0
-137 -229 132 0
-138 -287 140 0
-138 -283 136 0
-138 -282 135 0
-139 -294 137 0
-139 -293 136 0
-140 -347 138 0
-141 -135 145 0
-141 -134 144 0
-143 -157 147 0
-144 -198 141 0
-145 -215 148 0
-145 -208 141 0
-146 -226 149 0
-146 -225 148 0
-146 -219 142 0
-147 -236 149 0
-147 -230 143 0
-147 -229 142 0
-148 -287 150 0
-148 -283 146 0
-148 -282 145 0
-149 -294 147 0
-149 -293 146 0
-150 -347 148 0
-151 -135 155 0
-151 -134 154 0
-152 -147 157 0
-152 -146 156 0
-154 -198 151 0
-155 -215 158 0
-155 -208 151 0
-156 -226 159 0
-156 -225 158 0
-156 -219 152 0
-157 -236 159 0
-157 -230 153 0
-157 -229 152 0
-158 -287 160 0
-158 -283 156 0
-158 -282 155 0
-159 -294 157 0
-159 -293 156 0
-160 -347 158 0
-161 -98 164 0
-162 -111 165 0
-162 -110 164 0
-163 -124 166 0
-165 -180 168 0
-165 -174 162 0
-166 -194 169 0
-166 -193 168 0
-166 -188 163 0
-167 -248 170 0
-167 -242 164 0
-168 -264 171 0
-168 -259 166 0
-168 -258 165 0
-169 -277 172 0
-169 -271 166 0
-170 -307 167 0
-171 -323 168 0
-172 -336 169 0
-173 -98 176 0
-174 -111 177 0
-174 -110 176 0
-175 -124 178 0
-176 -167 179 0
-176 -162 174 0
-176 -161 173 0
-178 -194 181 0
-178 -193 180 0
-178 -188 175 0
-179 -248 182 0
-179 -242 176 0
-180 -264 183 0
-180 -259 178 0
-180 -258 177 0
-181 -277 184 0
-181 -271 178 0
-182 -307 179 0
-183 -323 180 0
-184 -336 181 0
-186 -98 189 0
-187 -111 190 0
-187 -110 189 0
-188 -124 191 0
-189 -167 192 0
-189 -162 187 0
-189 -161 186 0
-190 -180 193 0
-190 -174 187 0
-192 -248 195 0
-192 -242 189 0
-193 -264 196 0
-193 -259 191 0
-193 -258 190 0
-194 -277 197 0
-194 -271 191 0
-195 -307 192 0
-196 -323 193 0
-197 -336 194 0
-198 -135 202 0
-198 -134 201 0
-199 -147 204 0
-199 -146 203 0
-200 -157 204 0
-202 -215 205 0
-202 -208 198 0
-203 -226 206 0
-203 -225 205 0
-203 -219 199 0
-204 -236 206 0
-204 -230 200 0
-204 -229 199 0
-205 -287 207 0
-205 -283 203 0
-205 -282 202 0
-206 -294 204 0
-206 -293 203 0
-207 -347 205 0
-208 -135 212 0
-208 -134 211 0
-209 -147 214 0
-209 -146 213 0
-210 -157 214 0
-211 -198 208 0
-213 -226 216 0
-213 -225 215 0
-213 -219 209 0
-214 -236 216 0
-214 -230 210 0
-214 -229 209 0
-215 -287 217 0
-215 -283 213 0
-215 -282 212 0
-216 -294 214 0
-216 -293 213 0
-217 -347 215 0
-218 -135 222 0
-218 -134 221 0
-219 -147 224 0
-219 -146 223 0
-220 -157 224 0
-221 -198 218 0
-222 -215 225 0
-222 -208 218 0
-224 -236 226 0
-224 -230 220 0
-224 -229 219 0
-225 -287 227 0
-225 -283 223 0
-225 -282 222 0
-226 -294 224 0
-226 -293 223 0
-227 -347 225 0
-228 -135 232 0
-228 -134 231 0
-229 -147 234 0
-229 -146 233 0
-230 -157 234 0
-231 -198 228 0
-232 -215 235 0
-232 -208 228 0
-233 -226 236 0
-233 -225 235 0
-233 -219 229 0
-235 -287 237 0
-235 -283 233 0
-235 -282 232 0
-236 -294 234 0
-236 -293 233 0
-237 -347 235 0
-239 -98 242 0
-240 -111 243 0
-240 -110 242 0
-241 -124 244 0
-242 -167 245 0
-242 -162 240 0
-242 -161 239 0
-243 -180 246 0
-243 -174 240 0
-244 -194 247 0
-244 -193 246 0
-244 -188 241 0
-246 -264 249 0
-246 -259 244 0
-246 -258 243 0
-247 -277 250 0
-247 -271 244 0
-248 -307 245 0
-249 -323 246 0
-250 -336 247 0
-252 -298 251 0
-253 -313 251 0
-254 -98 257 0
-255 -111 258 0
-255 -110 257 0
-256 -124 259 0
-257 -167 260 0
-257 -162 255 0
-257 -161 254 0
-258 -180 261 0
-258 -174 255 0
-259 -194 262 0
-259 -193 261 0
-259 -188 256 0
-260 -248 263 0
-260 -242 257 0
-262 -277 265 0
-262 -271 259 0
-263 -307 260 0
-264 -323 261 0
-265 -336 262 0
-266 -98 269 0
-267 -111 270 0
-267 -110 269 0
-268 -124 271 0
-269 -167 272 0
-269 -162 267 0
-269 -161 266 0
-270 -180 273 0
-270 -174 267 0
-271 -194 274 0
-271 -193 273 0
-271 -188 268 0
-272 -248 275 0
-272 -242 269 0
-273 -264 276 0
-273 -259 271 0
-273 -258 270 0
-275 -307 272 0
-276 -323 273 0
-277 -336 274 0
-278 -135 282 0
-278 -134 281 0
-279 -147 284 0
-279 -146 283 0
-280 -157 284 0
-281 -198 278 0
-282 -215 285 0
-282 -208 278 0
-283 -226 286 0
-283 -225 285 0
-283 -219 279 0
-284 -236 286 0
-284 -230 280 0
-284 -229 279 0
-286 -294 284 0
-286 -293 283 0
-287 -347 285 0
-288 -135 292 0
-288 -134 291 0
-289 -147 294 0
-289 -146 293 0
-290 -157 294 0
-291 -198 288 0
-292 -215 295 0
-292 -208 288 0
-293 -226 296 0
-293 -225 295 0
-293 -219 289 0
-294 -236 296 0
-294 -230 290 0
-294 -229 289 0
-295 -287 297 0
-295 -283 293 0
-295 -282 292 0
-297 -347 295 0
-298 -253 300 0
-298 -252 299 0
-300 -313 298 0
-301 -98 304 0
-302 -111 305 0
-302 -110 304 0
-303 -124 306 0
-304 -167 307 0
-304 -162 302 0
-304 -161 301 0
-305 -180 308 0
-305 -174 302 0
-306 -194 309 0
-306 -193 308 0
-306 -188 303 0
-307 -248 310 0
-307 -242 304 0
-308 -264 311 0
-308 -259 306 0
-308 -258 305 0
-309 -277 312 0
-309 -271 306 0
-311 -323 308 0
-312 -336 309 0
-313 -253 315 0
-313 -252 314 0
-314 -298 313 0
-316 -98 319 0
-317 -111 320 0
-317 -110 319 0
-318 -124 321 0
-319 -167 322 0
-319 -162 317 0
-319 -161 316 0
-320 -180 323 0
-320 -174 317 0
-321 -194 324 0
-321 -193 323 0
-321 -188 318 0
-322 -248 325 0
-322 -242 319 0
-323 -264 326 0
-323 -259 321 0
-323 -258 320 0
-324 -277 327 0
-324 -271 321 0
-325 -307 322 0
-327 -336 324 0
-328 -98 331 0
-329 -111 332 0
-329 -110 331 0
-330 -124 333 0
-331 -167 334 0
-331 -162 329 0
-331 -161 328 0
-332 -180 335 0
-332 -174 329 0
-333 -194 336 0
-333 -193 335 0
-333 -188 330 0
-334 -248 337 0
-334 -242 331 0
-335 -264 338 0
-335 -259 333 0
-335 -258 332 0
-336 -277 339 0
-336 -271 333 0
-337 -307 334 0
-338 -323 335 0
-340 -135 344 0
-340 -134 343 0
-341 -147 346 0
-341 -146 345 0
-342 -157 346 0
-343 -198 340 0
-344 -215 347 0
-344 -208 340 0
-345 -226 348 0
-345 -225 347 0
-345 -219 341 0
-346 -236 348 0
-346 -230 342 0
-346 -229 341 0
-347 -287 349 0
-347 -283 345 0
-347 -282 344 0
-348 -294 346 0
-348 -293 345 0
-351 -358 352 0
-352 -382 354 0
-352 -381 353 0
-352 -379 351 0
-352 -378 350 0
-353 -462 355 0
-353 -459 352 0
-354 -468 355 0
-354 -465 352 0
-355 -527 354 0
-355 -526 353 0
-356 -352 358 0
-358 -382 360 0
-358 -381 359 0
-358 -379 357 0
-358 -378 356 0
-359 -462 361 0
-359 -459 358 0
-360 -468 361 0
-360 -465 358 0
-361 -527 360 0
-361 -526 359 0
-364 -394 366 0
-364 -391 363 0
-365 -446 367 0
-366 -480 368 0
-366 -476 364 0
-367 -513 368 0
-367 -510 365 0
-368 -557 369 0
-368 -555 367 0
-368 -554 366 0
-369 -616 371 0
-369 -613 368 0
-370 -660 372 0
-371 -693 372 0
-371 -690 369 0
-372 -767 373 0
-372 -765 371 0
-372 -764 370 0
-373 -831 376 0
-373 -830 375 0
-373 -827 372 0
-374 -864 376 0
-375 -928 377 0
-375 -924 373 0
-376 -943 377 0
-376 -940 374 0
-376 -939 373 0
-377 -982 376 0
-377 -981 375 0
-378 -352 380 0
-379 -358 380 0
-381 -462 383 0
-381 -459 380 0
-382 -468 383 0
-382 -465 380 0
-383 -527 382 0
-383 -526 381 0
-387 -470 386 0
-389 -474 390 0
-389 -472 388 0
-390 -531 389 0
-391 -364 392 0
-393 -446 395 0
-394 -480 396 0
-394 -476 392 0
-395 -513 396 0
-395 -510 393 0
-396 -557 397 0
-396 -555 395 0
-396 -554 394 0
-397 -616 399 0
-397 -613 396 0
-398 -660 400 0
-399 -693 400 0
-399 -690 397 0
-400 -767 401 0
-400 -765 399 0
-400 -764 398 0
-401 -831 404 0
-401 -830 403 0
-401 -827 400 0
-402 -864 404 0
-403 -928 405 0
-403 -924 401 0
-404 -943 405 0
-404 -940 402 0
-404 -939 401 0
-405 -982 404 0
-405 -981 403 0
-407 -426 408 0
-408 -494 410 0
-408 -493 409 0
-408 -491 407 0
-408 -490 406 0
-409 -538 411 0
-409 -535 408 0
-410 -572 412 0
-410 -571 411 0
-410 -568 408 0
-411 -597 413 0
-411 -594 410 0
-411 -593 409 0
-412 -631 414 0
-412 -627 410 0
-413 -676 416 0
-413 -671 411 0
-414 -710 417 0
-414 -705 412 0
-415 -728 417 0
-416 -751 418 0
-416 -746 413 0
-417 -787 421 0
-417 -786 420 0
-417 -781 415 0
-417 -780 414 0
-418 -810 416 0
-419 -849 422 0
-420 -882 422 0
-420 -877 417 0
-421 -896 417 0
-422 -961 423 0
-422 -958 420 0
-422 -957 419 0
-423 -1000 422 0
-424 -408 426 0
-426 -494 428 0
-426 -493 427 0
-426 -491 425 0
-426 -490 424 0
-427 -538 429 0
-427 -535 426 0
-428 -572 430 0
-428 -571 429 0
-428 -568 426 0
-429 -597 431 0
-429 -594 428 0
-429 -593 427 0
-430 -631 432 0
-430 -627 428 0
-431 -676 434 0
-431 -671 429 0
-432 -710 435 0
-432 -705 430 0
-433 -728 435 0
-434 -751 436 0
-434 -746 431 0
-435 -787 439 0
-435 -786 438 0
-435 -781 433 0
-435 -780 432 0
-436 -810 434 0
-437 -849 440 0
-438 -882 440 0
-438 -877 435 0
-439 -896 435 0
-440 -961 441 0
-440 -958 438 0
-440 -957 437 0
-441 -1000 440 0
-442 -364 443 0
-443 -394 445 0
-443 -391 442 0
-445 -480 447 0
-445 -476 443 0
-446 -513 447 0
-446 -510 444 0
-447 -557 448 0
-447 -555 446 0
-447 -554 445 0
-448 -616 450 0
-448 -613 447 0
-449 -660 451 0
-450 -693 451 0
-450 -690 448 0
-451 -767 452 0
-451 -765 450 0
-451 -764 449 0
-452 -831 455 0
-452 -830 454 0
-452 -827 451 0
-453 -864 455 0
-454 -928 456 0
-454 -924 452 0
-455 -943 456 0
-455 -940 453 0
-455 -939 452 0
-456 -982 455 0
-456 -981 454 0
-457 -352 459 0
-458 -358 459 0
-459 -382 461 0
-459 -381 460 0
-459 -379 458 0
-459 -378 457 0
-461 -468 462 0
-461 -465 459 0
-462 -527 461 0
-462 -526 460 0
-463 -352 465 0
-464 -358 465 0
-465 -382 467 0
-465 -381 466 0
-465 -379 464 0
-465 -378 463 0
-466 -462 468 0
-466 -459 465 0
-468 -527 467 0
-468 -526 466 0
-470 -387 471 0
-472 -389 473 0
-474 -531 473 0
-475 -364 476 0
-476 -394 478 0
-476 -391 475 0
-477 -446 479 0
-479 -513 480 0
-479 -510 477 0
-480 -557 481 0
-480 -555 479 0
-480 -554 478 0
-481 -616 483 0
-481 -613 480 0
-482 -660 484 0
-483 -693 484 0
-483 -690 481 0
-484 -767 485 0
-484 -765 483 0
-484 -764 482 0
-485 -831 488 0
-485 -830 487 0
-485 -827 484 0
-486 -864 488 0
-487 -928 489 0
-487 -924 485 0
-488 -943 489 0
-488 -940 486 0
-488 -939 485 0
-489 -982 488 0
-489 -981 487 0
-490 -408 492 0
-491 -426 492 0
-493 -538 495 0
-493 -535 492 0
-494 -572 496 0
-494 -571 495 0
-494 -568 492 0
-495 -597 497 0
-495 -594 494 0
-495 -593 493 0
-496 -631 498 0
-496 -627 494 0
-497 -676 500 0
-497 -671 495 0
-498 -710 501 0
-498 -705 496 0
-499 -728 501 0
-500 -751 502 0
-500 -746 497 0
-501 -787 505 0
-501 -786 504 0
-501 -781 499 0
-501 -780 498 0
-502 -810 500 0
-503 -849 506 0
-504 -882 506 0
-504 -877 501 0
-505 -896 501 0
-506 -961 507 0
-506 -958 504 0
-506 -957 503 0
-507 -1000 506 0
-508 -364 509 0
-509 -394 511 0
-509 -391 508 0
-510 -446 512 0
-511 -480 513 0
-511 -476 509 0
-513 -557 514 0
-513 -555 512 0
-513 -554 511 0
-514 -616 516 0
-514 -613 513 0
-515 -660 517 0
-516 -693 517 0
-516 -690 514 0
-517 -767 518 0
-517 -765 516 0
-517 -764 515 0
-518 -831 521 0
-518 -830 520 0
-518 -827 517 0
-519 -864 521 0
-520 -928 522 0
-520 -924 518 0
-521 -943 522 0
-521 -940 519 0
-521 -939 518 0
-522 -982 521 0
-522 -981 520 0
-523 -352 525 0
-524 -358 525 0
-525 -382 527 0
-525 -381 526 0
-525 -379 524 0
-525 -378 523 0
-526 -462 528 0
-526 -459 525 0
-527 -468 528 0
-527 -465 525 0
-530 -389 531 0
-531 -474 532 0
-531 -472 530 0
-533 -408 535 0
-534 -426 535 0
-535 -494 537 0
-535 -493 536 0
-535 -491 534 0
-535 -490 533 0
-537 -572 539 0
-537 -571 538 0
-537 -568 535 0
-538 -597 540 0
-538 -594 537 0
-538 -593 536 0
-539 -631 541 0
-539 -627 537 0
-540 -676 543 0
-540 -671 538 0
-541 -710 544 0
-541 -705 539 0
-542 -728 544 0
-543 -751 545 0
-543 -746 540 0
-544 -787 548 0
-544 -786 547 0
-544 -781 542 0
-544 -780 541 0
-545 -810 543 0
-546 -849 549 0
-547 -882 549 0
-547 -877 544 0
-548 -896 544 0
-549 -961 550 0
-549 -958 547 0
-549 -957 546 0
-550 -1000 549 0
-551 -364 552 0
-552 -394 554 0
-552 -391 551 0
-553 -446 555 0
-554 -480 556 0
-554 -476 552 0
-555 -513 556 0
-555 -510 553 0
-557 -616 559 0
-557 -613 556 0
-558 -660 560 0
-559 -693 560 0
-559 -690 557 0
-560 -767 561 0
-560 -765 559 0
-560 -764 558 0
-561 -831 564 0
-561 -830 563 0
-561 -827 560 0
-562 -864 564 0
-563 -928 565 0
-563 -924 561 0
-564 -943 565 0
-564 -940 562 0
-564 -939 561 0
-565 -982 564 0
-565 -981 563 0
-566 -408 568 0
-567 -426 568 0
-568 -494 570 0
-568 -493 569 0
-568 -491 567 0
-568 -490 566 0
-569 -538 571 0
-569 -535 568 0
-571 -597 573 0
-571 -594 570 0
-571 -593 569 0
-572 -631 574 0
-572 -627 570 0
-573 -676 576 0
-573 -671 571 0
-574 -710 577 0
-574 -705 572 0
-575 -728 577 0
-576 -751 578 0
-576 -746 573 0
-577 -787 581 0
-577 -786 580 0
-577 -781 575 0
-577 -780 574 0
-578 -810 576 0
-579 -849 582 0
-580 -882 582 0
-580 -877 577 0
-581 -896 577 0
-582 -961 583 0
-582 -958 580 0
-582 -957 579 0
-583 -1000 582 0
-585 -644 587 0
-585 -641 584 0
-586 -648 587 0
-587 -737 586 0
-587 -736 585 0
-589 -649 588 0
-590 -408 592 0
-591 -426 592 0
-592 -494 594 0
-592 -493 593 0
-592 -491 591 0
-592 -490 590 0
-593 -538 595 0
-593 -535 592 0
-594 -572 596 0
-594 -571 595 0
-594 -568 592 0
-596 -631 598 0
-596 -627 594 0
-597 -676 600 0
-597 -671 595 0
-598 -710 601 0
-598 -705 596 0
-599 -728 601 0
-600 -751 602 0
-600 -746 597 0
-601 -787 605 0
-601 -786 604 0
-601 -781 599 0
-601 -780 598 0
-602 -810 600 0
-603 -849 606 0
-604 -882 606 0
-604 -877 601 0
-605 -896 601 0
-606 -961 607 0
-606 -958 604 0
-606 -957 603 0
-607 -1000 606 0
-608 -364 609 0
-609 -394 611 0
-609 -391 608 0
-610 -446 612 0
-611 -480 613 0
-611 -476 609 0
-612 -513 613 0
-612 -510 610 0
-613 -557 614 0
-613 -555 612 0
-613 -554 611 0
-615 -660 617 0
-616 -693 617 0
-616 -690 614 0
-617 -767 618 0
-617 -765 616 0
-617 -764 615 0
-618 -831 621 0
-618 -830 620 0
-618 -827 617 0
-619 -864 621 0
-620 -928 622 0
-620 -924 618 0
-621 -943 622 0
-621 -940 619 0
-621 -939 618 0
-622 -982 621 0
-622 -981 620 0
-623 -408 625 0
-624 -426 625 0
-625 -494 627 0
-625 -493 626 0
-625 -491 624 0
-625 -490 623 0
-626 -538 628 0
-626 -535 625 0
-627 -572 629 0
-627 -571 628 0
-627 -568 625 0
-628 -597 630 0
-628 -594 627 0
-628 -593 626 0
-630 -676 633 0
-630 -671 628 0
-631 -710 634 0
-631 -705 629 0
-632 -728 634 0
-633 -751 635 0
-633 -746 630 0
-634 -787 638 0
-634 -786 637 0
-634 -781 632 0
-634 -780 631 0
-635 -810 633 0
-636 -849 639 0
-637 -882 639 0
-637 -877 634 0
-638 -896 634 0
-639 -961 640 0
-639 -958 637 0
-639 -957 636 0
-640 -1000 639 0
-641 -585 642 0
-643 -648 644 0
-644 -737 643 0
-644 -736 642 0
-645 -585 646 0
-646 -644 648 0
-646 -641 645 0
-648 -737 647 0
-648 -736 646 0
-649 -589 650 0
-651 -364 652 0
-652 -394 654 0
-652 -391 651 0
-653 -446 655 0
-654 -480 656 0
-654 -476 652 0
-655 -513 656 0
-655 -510 653 0
-656 -557 657 0
-656 -555 655 0
-656 -554 654 0
-657 -616 659 0
-657 -613 656 0
-659 -693 660 0
-659 -690 657 0
-660 -767 661 0
-660 -765 659 0
-660 -764 658 0
-661 -831 664 0
-661 -830 663 0
-661 -827 660 0
-662 -864 664 0
-663 -928 665 0
-663 -924 661 0
-664 -943 665 0
-664 -940 662 0
-664 -939 661 0
-665 -982 664 0
-665 -981 663 0
-666 -408 668 0
-667 -426 668 0
-668 -494 670 0
-668 -493 669 0
-668 -491 667 0
-668 -490 666 0
-669 -538 671 0
-669 -535 668 0
-670 -572 672 0
-670 -571 671 0
-670 -568 668 0
-671 -597 673 0
-671 -594 670 0
-671 -593 669 0
-672 -631 674 0
-672 -627 670 0
-674 -710 677 0
-674 -705 672 0
-675 -728 677 0
-676 -751 678 0
-676 -746 673 0
-677 -787 681 0
-677 -786 680 0
-677 -781 675 0
-677 -780 674 0
-678 -810 676 0
-679 -849 682 0
-680 -882 682 0
-680 -877 677 0
-681 -896 677 0
-682 -961 683 0
-682 -958 680 0
-682 -957 679 0
-683 -1000 682 0
-684 -364 685 0
-685 -394 687 0
-685 -391 684 0
-686 -446 688 0
-687 -480 689 0
-687 -476 685 0
-688 -513 689 0
-688 -510 686 0
-689 -557 690 0
-689 -555 688 0
-689 -554 687 0
-690 -616 692 0
-690 -613 689 0
-691 -660 693 0
-693 -767 694 0
-693 -765 692 0
-693 -764 691 0
-694 -831 697 0
-694 -830 696 0
-694 -827 693 0
-695 -864 697 0
-696 -928 698 0
-696 -924 694 0
-697 -943 698 0
-697 -940 695 0
-697 -939 694 0
-698 -982 697 0
-698 -981 696 0
-699 -408 701 0
-700 -426 701 0
-701 -494 703 0
-701 -493 702 0
-701 -491 700 0
-701 -490 699 0
-702 -538 704 0
-702 -535 701 0
-703 -572 705 0
-703 -571 704 0
-703 -568 701 0
-704 -597 706 0
-704 -594 703 0
-704 -593 702 0
-705 -631 707 0
-705 -627 703 0
-706 -676 709 0
-706 -671 704 0
-708 -728 710 0
-709 -751 711 0
-709 -746 706 0
-710 -787 714 0
-710 -786 713 0
-710 -781 708 0
-710 -780 707 0
-711 -810 709 0
-712 -849 715 0
-713 -882 715 0
-713 -877 710 0
-714 -896 710 0
-715 -961 716 0
-715 -958 713 0
-715 -957 712 0
-716 -1000 715 0
-717 -408 719 0
-718 -426 719 0
-719 -494 721 0
-719 -493 720 0
-719 -491 718 0
-719 -490 717 0
-720 -538 722 0
-720 -535 719 0
-721 -572 723 0
-721 -571 722 0
-721 -568 719 0
-722 -597 724 0
-722 -594 721 0
-722 -593 720 0
-723 -631 725 0
-723 -627 721 0
-724 -676 727 0
-724 -671 722 0
-725 -710 728 0
-725 -705 723 0
-727 -751 729 0
-727 -746 724 0
-728 -787 732 0
-728 -786 731 0
-728 -781 726 0
-728 -780 725 0
-729 -810 727 0
-730 -849 733 0
-731 -882 733 0
-731 -877 728 0
-732 -896 728 0
-733 -961 734 0
-733 -958 731 0
-733 -957 730 0
-734 -1000 733 0
-735 -585 736 0
-736 -644 738 0
-736 -641 735 0
-737 -648 738 0
-739 -408 741 0
-740 -426 741 0
-741 -494 743 0
-741 -493 742 0
-741 -491 740 0
-741 -490 739 0
-742 -538 744 0
-742 -535 741 0
-743 -572 745 0
-743 -571 744 0
-743 -568 741 0
-744 -597 746 0
-744 -594 743 0
-744 -593 742 0
-745 -631 747 0
-745 -627 743 0
-746 -676 749 0
-746 -671 744 0
-747 -710 750 0
-747 -705 745 0
-748 -728 750 0
-750 -787 754 0
-750 -786 753 0
-750 -781 748 0
-750 -780 747 0
-751 -810 749 0
-752 -849 755 0
-753 -882 755 0
-753 -877 750 0
-754 -896 750 0
-755 -961 756 0
-755 -958 753 0
-755 -957 752 0
-756 -1000 755 0
-757 -364 758 0
-758 -394 760 0
-758 -391 757 0
-759 -446 761 0
-760 -480 762 0
-760 -476 758 0
-761 -513 762 0
-761 -510 759 0
-762 -557 763 0
-762 -555 761 0
-762 -554 760 0
-763 -616 765 0
-763 -613 762 0
-764 -660 766 0
-765 -693 766 0
-765 -690 763 0
-767 -831 770 0
-767 -830 769 0
-767 -827 766 0
-768 -864 770 0
-769 -928 771 0
-769 -924 767 0
-770 -943 771 0
-770 -940 768 0
-770 -939 767 0
-771 -982 770 0
-771 -981 769 0
-772 -408 774 0
-773 -426 774 0
-774 -494 776 0
-774 -493 775 0
-774 -491 773 0
-774 -490 772 0
-775 -538 777 0
-775 -535 774 0
-776 -572 778 0
-776 -571 777 0
-776 -568 774 0
-777 -597 779 0
-777 -594 776 0
-777 -593 775 0
-778 -631 780 0
-778 -627 776 0
-779 -676 782 0
-779 -671 777 0
-780 -710 783 0
-780 -705 778 0
-781 -728 783 0
-782 -751 784 0
-782 -746 779 0
-784 -810 782 0
-785 -849 788 0
-786 -882 788 0
-786 -877 783 0
-787 -896 783 0
-788 -961 789 0
-788 -958 786 0
-788 -957 785 0
-789 -1000 788 0
-791 -798 793 0
-791 -797 792 0
-792 -908 794 0
-792 -905 791 0
-792 -904 790 0
-793 -913 794 0
-793 -910 791 0
-794 -965 793 0
-794 -964 792 0
-795 -792 797 0
-797 -908 799 0
-797 -905 796 0
-797 -904 795 0
-798 -913 799 0
-798 -910 796 0
-799 -965 798 0
-799 -964 797 0
-800 -408 802 0
-801 -426 802 0
-802 -494 804 0
-802 -493 803 0
-802 -491 801 0
-802 -490 800 0
-803 -538 805 0
-803 -535 802 0
-804 -572 806 0
-804 -571 805 0
-804 -568 802 0
-805 -597 807 0
-805 -594 804 0
-805 -593 803 0
-806 -631 808 0
-806 -627 804 0
-807 -676 810 0
-807 -671 805 0
-808 -710 811 0
-808 -705 806 0
-809 -728 811 0
-810 -751 812 0
-810 -746 807 0
-811 -787 815 0
-811 -786 814 0
-811 -781 809 0
-811 -780 808 0
-813 -849 816 0
-814 -882 816 0
-814 -877 811 0
-815 -896 811 0
-816 -961 817 0
-816 -958 814 0
-816 -957 813 0
-817 -1000 816 0
-818 -364 819 0
-819 -394 821 0
-819 -391 818 0
-820 -446 822 0
-821 -480 823 0
-821 -476 819 0
-822 -513 823 0
-822 -510 820 0
-823 -557 824 0
-823 -555 822 0
-823 -554 821 0
-824 -616 826 0
-824 -613 823 0
-825 -660 827 0
-826 -693 827 0
-826 -690 824 0
-827 -767 828 0
-827 -765 826 0
-827 -764 825 0
-829 -864 831 0
-830 -928 832 0
-830 -924 828 0
-831 -943 832 0
-831 -940 829 0
-831 -939 828 0
-832 -982 831 0
-832 -981 830 0
-833 -408 835 0
-834 -426 835 0
-835 -494 837 0
-835 -493 836 0
-835 -491 834 0
-835 -490 833 0
-836 -538 838 0
-836 -535 835 0
-837 -572 839 0
-837 -571 838 0
-837 -568 835 0
-838 -597 840 0
-838 -594 837 0
-838 -593 836 0
-839 -631 841 0
-839 -627 837 0
-840 -676 843 0
-840 -671 838 0
-841 -710 844 0
-841 -705 839 0
-842 -728 844 0
-843 -751 845 0
-843 -746 840 0
-844 -787 848 0
-844 -786 847 0
-844 -781 842 0
-844 -780 841 0
-845 -810 843 0
-847 -882 849 0
-847 -877 844 0
-848 -896 844 0
-849 -961 850 0
-849 -958 847 0
-849 -957 846 0
-850 -1000 849 0
-851 -364 852 0
-852 -394 854 0
-852 -391 851 0
-853 -446 855 0
-854 -480 856 0
-854 -476 852 0
-855 -513 856 0
-855 -510 853 0
-856 -557 857 0
-856 -555 855 0
-856 -554 854 0
-857 -616 859 0
-857 -613 856 0
-858 -660 860 0
-859 -693 860 0
-859 -690 857 0
-860 -767 861 0
-860 -765 859 0
-860 -764 858 0
-861 -831 864 0
-861 -830 863 0
-861 -827 860 0
-863 -928 865 0
-863 -924 861 0
-864 -943 865 0
-864 -940 862 0
-864 -939 861 0
-865 -982 864 0
-865 -981 863 0
-866 -408 868 0
-867 -426 868 0
-868 -494 870 0
-868 -493 869 0
-868 -491 867 0
-868 -490 866 0
-869 -538 871 0
-869 -535 868 0
-870 -572 872 0
-870 -571 871 0
-870 -568 868 0
-871 -597 873 0
-871 -594 870 0
-871 -593 869 0
-872 -631 874 0
-872 -627 870 0
-873 -676 876 0
-873 -671 871 0
-874 -710 877 0
-874 -705 872 0
-875 -728 877 0
-876 -751 878 0
-876 -746 873 0
-877 -787 881 0
-877 -786 880 0
-877 -781 875 0
-877 -780 874 0
-878 -810 876 0
-879 -849 882 0
-881 -896 877 0
-882 -961 883 0
-882 -958 880 0
-882 -957 879 0
-883 -1000 882 0
-885 -408 887 0
-886 -426 887 0
-887 -494 889 0
-887 -493 888 0
-887 -491 886 0
-887 -490 885 0
-888 -538 890 0
-888 -535 887 0
-889 -572 891 0
-889 -571 890 0
-889 -568 887 0
-890 -597 892 0
-890 -594 889 0
-890 -593 888 0
-891 -631 893 0
-891 -627 889 0
-892 -676 895 0
-892 -671 890 0
-893 -710 896 0
-893 -705 891 0
-894 -728 896 0
-895 -751 897 0
-895 -746 892 0
-896 -787 900 0
-896 -786 899 0
-896 -781 894 0
-896 -780 893 0
-897 -810 895 0
-898 -849 901 0
-899 -882 901 0
-899 -877 896 0
-901 -961 902 0
-901 -958 899 0
-901 -957 898 0
-902 -1000 901 0
-904 -792 906 0
-905 -798 907 0
-905 -797 906 0
-907 -913 908 0
-907 -910 905 0
-908 -965 907 0
-908 -964 906 0
-909 -792 911 0
-910 -798 912 0
-910 -797 911 0
-911 -908 913 0
-911 -905 910 0
-911 -904 909 0
-913 -965 912 0
-913 -964 911 0
-914 -364 915 0
-915 -394 917 0
-915 -391 914 0
-916 -446 918 0
-917 -480 919 0
-917 -476 915 0
-918 -513 919 0
-918 -510 916 0
-919 -557 920 0
-919 -555 918 0
-919 -554 917 0
-920 -616 922 0
-920 -613 919 0
-921 -660 923 0
-922 -693 923 0
-922 -690 920 0
-923 -767 924 0
-923 -765 922 0
-923 -764 921 0
-924 -831 927 0
-924 -830 926 0
-924 -827 923 0
-925 -864 927 0
-927 -943 928 0
-927 -940 925 0
-927 -939 924 0
-928 -982 927 0
-928 -981 926 0
-929 -364 930 0
-930 -394 932 0
-930 -391 929 0
-931 -446 933 0
-932 -480 934 0
-932 -476 930 0
-933 -513 934 0
-933 -510 931 0
-934 -557 935 0
-934 -555 933 0
-934 -554 932 0
-935 -616 937 0
-935 -613 934 0
-936 -660 938 0
-937 -693 938 0
-937 -690 935 0
-938 -767 939 0
-938 -765 937 0
-938 -764 936 0
-939 -831 942 0
-939 -830 941 0
-939 -827 938 0
-940 -864 942 0
-941 -928 943 0
-941 -924 939 0
-943 -982 942 0
-943 -981 941 0
-944 -408 946 0
-945 -426 946 0
-946 -494 948 0
-946 -493 947 0
-946 -491 945 0
-946 -490 944 0
-947 -538 949 0
-947 -535 946 0
-948 -572 950 0
-948 -571 949 0
-948 -568 946 0
-949 -597 951 0
-949 -594 948 0
-949 -593 947 0
-950 -631 952 0
-950 -627 948 0
-951 -676 954 0
-951 -671 949 0
-952 -710 955 0
-952 -705 950 0
-953 -728 955 0
-954 -751 956 0
-954 -746 951 0
-955 -787 959 0
-955 -786 958 0
-955 -781 953 0
-955 -780 952 0
-956 -810 954 0
-957 -849 960 0
-958 -882 960 0
-958 -877 955 0
-959 -896 955 0
-961 -1000 960 0
-962 -792 964 0
-963 -798 965 0
-963 -797 964 0
-964 -908 966 0
-964 -905 963 0
-964 -904 962 0
-965 -913 966 0
-965 -910 963 0
-969 -364 970 0
-970 -394 972 0
-970 -391 969 0
-971 -446 973 0
-972 -480 974 0
-972 -476 970 0
-973 -513 974 0
-973 -510 971 0
-974 -557 975 0
-974 -555 973 0
-974 -554 972 0
-975 -616 977 0
-975 -613 974 0
-976 -660 978 0
-977 -693 978 0
-977 -690 975 0
-978 -767 979 0
-978 -765 977 0
-978 -764 976 0
-979 -831 982 0
-979 -830 981 0
-979 -827 978 0
-980 -864 982 0
-981 -928 983 0
-981 -924 979 0
-982 -943 983 0
-982 -940 980 0
-982 -939 979 0
-984 -408 986 0
-985 -426 986 0
-986 -494 988 0
-986 -493 987 0
-986 -491 985 0
-986 -490 984 0
-987 -538 989 0
-987 -535 986 0
-988 -572 990 0
-988 -571 989 0
-988 -568 986 0
-989 -597 991 0
-989 -594 988 0
-989 -593 987 0
-990 -631 992 0
-990 -627 988 0
-991 -676 994 0
-991 -671 989 0
-992 -710 995 0
-992 -705 990 0
-993 -728 995 0
-994 -751 996 0
-994 -746 991 0
-995 -787 999 0
-995 -786 998 0
-995 -781 993 0
-995 -780 992 0
-996 -810 994 0
-997 -849 1000 0
-998 -882 1000 0
-998 -877 995 0
-999 -896 995 0
-1000 -961 1001 0
-1000 -958 998 0
-1000 -957 997 0
